c A SAT instance generated from a 3-CNF formula that had 24 clauses and 12 variables
p cnf 12 24
1 4 5 0
-4 -10 5 0
8 5 -6 0
-7 -8 -6 0
-1 5 9 0
-6 -7 11 0
4 10 -9 0
9 2 -1 0
10 5 4 0
5 12 -1 0
-1 -2 5 0
-4 -8 -6 0
-5 10 -9 0
-9 12 -10 0
4 -7 6 0
-1 -6 -9 0
-6 -7 -12 0
12 -4 -7 0
12 -6 -11 0
-5 -11 8 0
-1 -3 -8 0
5 -8 12 0
-8 6 -5 0
6 11 -2 0
